(set-info :source |printed by MathSAT|)
(declare-fun |Poker_create::__retval__@2| () Real)
(declare-fun Num@5 () Real)
(declare-fun |__ADDRESS_OF_main::__CPAchecker_TMP_5| () Real)
(declare-fun |Poker_print::pn@2| () Real)
(declare-fun Num@4 () Real)
(declare-fun |main::fst@3| () Real)
(declare-fun |__ADDRESS_OF___VERIFIER_successful_alloc_*void#1| () Real)
(declare-fun |__ADDRESS_OF_main::__CPAchecker_TMP_2| () Real)
(declare-fun |Poker_create::pn@3| () Real)
(declare-fun |*(char)*@3| (Real) Real)
(declare-fun |main::__CPAchecker_TMP_2@3| () Real)
(declare-fun |__ADDRESS_OF_main::play| () Real)
(declare-fun Rational__%_ (Real Real) Real)
(declare-fun |Poker_create::__retval__@3| () Real)
(declare-fun |*(char)*@1| (Real) Real)
(declare-fun __BASE_ADDRESS_OF__ (Real) Real)
(declare-fun |Poker_create::name@3| () Real)
(declare-fun |*((char)*)*@1| (Real) Real)
(declare-fun |main::__CPAchecker_TMP_4@3| () Real)
(declare-fun |main::__CPAchecker_TMP_5@3| () Real)
(declare-fun Num@8 () Real)
(declare-fun Num@2 () Real)
(declare-fun |__ADDRESS_OF_main::__CPAchecker_TMP_3| () Real)
(declare-fun |Poker_destroy::pn@3| () Real)
(declare-fun |main::__CPAchecker_TMP_0@4| () Real)
(declare-fun |__ADDRESS_OF_Poker_create::pn| () Real)
(declare-fun |Poker_create::pn@5| () Real)
(declare-fun *signed_int@2 (Real) Real)
(declare-fun |main::__CPAchecker_TMP_1@3| () Real)
(declare-fun |__ADDRESS_OF_main::__CPAchecker_TMP_1| () Real)
(declare-fun |__ADDRESS_OF_main::__CPAchecker_TMP_4| () Real)
(declare-fun |Poker_create::num@3| () Real)
(declare-fun strdup (Real) Real)
(declare-fun |Poker_destroy::pn@2| () Real)
(declare-fun __ADDRESS_OF_Num () Real)
(declare-fun |__ADDRESS_OF_main::__CPAchecker_TMP_0| () Real)
(declare-fun |__ADDRESS_OF_main::pname| () Real)
(declare-fun |*(char)*@2| (Real) Real)
(declare-fun |Poker_create::num@2| () Real)
(declare-fun Num@3 () Real)
(declare-fun Num@7 () Real)
(declare-fun |main::play@2| () Real)
(declare-fun |Poker_create::name@2| () Real)
(declare-fun Num@6 () Real)
(declare-fun |__ADDRESS_OF_main::fst| () Real)
(declare-fun |__ADDRESS_OF_main::sec| () Real)
(declare-fun __string__ (Real) Real)
(declare-fun |Poker_print::pn@3| () Real)
(declare-fun |main::__CPAchecker_TMP_0@3| () Real)
(declare-fun *signed_int@3 (Real) Real)
(declare-fun |__ADDRESS_OF___VERIFIER_successful_alloc_*void#0| () Real)
(declare-fun rand () Real)
(declare-fun |main::sec@2| () Real)
(declare-fun |main::__CPAchecker_TMP_3@3| () Real)
(define-fun .def_429 () Bool (= |main::__CPAchecker_TMP_0@4| (to_real 0)))
(define-fun .def_420 () Bool (= |main::sec@2| (to_real 0)))
(define-fun .def_414 () Bool (= |main::__CPAchecker_TMP_5@3| (to_real 0)))
(define-fun .def_417 () Bool (not .def_414))
(define-fun .def_412 () Bool (= |Poker_create::__retval__@3| |main::__CPAchecker_TMP_5@3|))
(define-fun .def_400 () Real (+ |__ADDRESS_OF___VERIFIER_successful_alloc_*void#0| (to_real 4)))
(define-fun .def_402 () Real (*signed_int@2 .def_400))
(define-fun .def_401 () Real (*signed_int@3 .def_400))
(define-fun .def_403 () Bool (= .def_401 .def_402))
(define-fun .def_340 () Bool (= |__ADDRESS_OF___VERIFIER_successful_alloc_*void#0| |Poker_create::pn@5|))
(define-fun .def_404 () Bool (or .def_340 .def_403))
(define-fun .def_394 () Real (+ |__ADDRESS_OF___VERIFIER_successful_alloc_*void#1| (to_real 4)))
(define-fun .def_396 () Real (*signed_int@2 .def_394))
(define-fun .def_395 () Real (*signed_int@3 .def_394))
(define-fun .def_397 () Bool (= .def_395 .def_396))
(define-fun .def_272 () Bool (= |__ADDRESS_OF___VERIFIER_successful_alloc_*void#1| |Poker_create::pn@5|))
(define-fun .def_398 () Bool (or .def_272 .def_397))
(define-fun .def_408 () Bool (and .def_398 .def_404))
(define-fun .def_406 () Bool (= |Poker_create::pn@5| |Poker_create::__retval__@3|))
(define-fun .def_390 () Real (+ |Poker_create::pn@5| (to_real 4)))
(define-fun .def_391 () Real (*signed_int@3 .def_390))
(define-fun .def_392 () Bool (= |Poker_create::num@3| .def_391))
(define-fun .def_407 () Bool (and .def_392 .def_406))
(define-fun .def_409 () Bool (and .def_407 .def_408))
(define-fun .def_366 () Bool (<= (to_real 0) Num@6))
(define-fun .def_362 () Real (* (to_real (- 1)) Num@6))
(define-fun .def_363 () Real (+ Num@5 .def_362))
(define-fun .def_364 () Bool (= .def_363 (to_real 1)))
(define-fun .def_342 () Real (|*(char)*@2| |__ADDRESS_OF___VERIFIER_successful_alloc_*void#0|))
(define-fun .def_341 () Real (|*(char)*@3| |__ADDRESS_OF___VERIFIER_successful_alloc_*void#0|))
(define-fun .def_343 () Bool (= .def_341 .def_342))
(define-fun .def_344 () Bool (or .def_340 .def_343))
(define-fun .def_337 () Real (|*(char)*@2| |__ADDRESS_OF___VERIFIER_successful_alloc_*void#1|))
(define-fun .def_336 () Real (|*(char)*@3| |__ADDRESS_OF___VERIFIER_successful_alloc_*void#1|))
(define-fun .def_338 () Bool (= .def_336 .def_337))
(define-fun .def_339 () Bool (or .def_272 .def_338))
(define-fun .def_353 () Bool (and .def_339 .def_344))
(define-fun .def_45 () Real (+ |__ADDRESS_OF_main::pname| (to_real 12)))
(define-fun .def_345 () Real (|*(char)*@3| .def_45))
(define-fun .def_181 () Real (|*(char)*@2| .def_45))
(define-fun .def_346 () Bool (= .def_181 .def_345))
(define-fun .def_354 () Bool (and .def_346 .def_353))
(define-fun .def_38 () Real (+ |__ADDRESS_OF_main::pname| (to_real 8)))
(define-fun .def_347 () Real (|*(char)*@3| .def_38))
(define-fun .def_183 () Real (|*(char)*@2| .def_38))
(define-fun .def_348 () Bool (= .def_183 .def_347))
(define-fun .def_355 () Bool (and .def_348 .def_354))
(define-fun .def_31 () Real (+ |__ADDRESS_OF_main::pname| (to_real 4)))
(define-fun .def_349 () Real (|*(char)*@3| .def_31))
(define-fun .def_185 () Real (|*(char)*@2| .def_31))
(define-fun .def_350 () Bool (= .def_185 .def_349))
(define-fun .def_356 () Bool (and .def_350 .def_355))
(define-fun .def_351 () Real (|*(char)*@3| |__ADDRESS_OF_main::pname|))
(define-fun .def_187 () Real (|*(char)*@2| |__ADDRESS_OF_main::pname|))
(define-fun .def_352 () Bool (= .def_187 .def_351))
(define-fun .def_357 () Bool (and .def_352 .def_356))
(define-fun .def_334 () Real (|*(char)*@3| |Poker_create::pn@5|))
(define-fun .def_333 () Real (strdup |Poker_create::name@3|))
(define-fun .def_335 () Bool (= .def_333 .def_334))
(define-fun .def_358 () Bool (and .def_335 .def_357))
(define-fun .def_318 () Bool (<= (to_real 0) Num@5))
(define-fun .def_314 () Real (* (to_real (- 1)) Num@5))
(define-fun .def_315 () Real (+ Num@4 .def_314))
(define-fun .def_316 () Bool (= .def_315 (to_real 1)))
(define-fun .def_275 () Bool (= |Poker_create::pn@5| (to_real 0)))
(define-fun .def_276 () Bool (not .def_275))
(define-fun .def_267 () Real (* (to_real (- 1)) |__ADDRESS_OF___VERIFIER_successful_alloc_*void#1|))
(define-fun .def_268 () Real (+ |__ADDRESS_OF___VERIFIER_successful_alloc_*void#0| .def_267))
(define-fun .def_269 () Bool (<= .def_268 (to_real (- 8))))
(define-fun .def_265 () Bool (<= |__ADDRESS_OF___VERIFIER_successful_alloc_*void#0| (to_real (- 8))))
(define-fun .def_266 () Bool (not .def_265))
(define-fun .def_270 () Bool (and .def_266 .def_269))
(define-fun .def_273 () Bool (and .def_270 .def_272))
(define-fun .def_256 () Real (* (to_real (- 1)) |Poker_create::num@3|))
(define-fun .def_253 () Real (Rational__%_ |main::__CPAchecker_TMP_4@3| (to_real 13)))
(define-fun .def_257 () Real (+ .def_253 .def_256))
(define-fun .def_258 () Bool (= .def_257 (to_real (- 1))))
(define-fun .def_247 () Real (Rational__%_ |main::__CPAchecker_TMP_3@3| (to_real 4)))
(define-fun .def_248 () Real (* (to_real 4) .def_247))
(define-fun .def_95 () Real (|*((char)*)*@1| |__ADDRESS_OF_main::pname|))
(define-fun .def_249 () Real (+ .def_95 .def_248))
(define-fun .def_250 () Real (|*(char)*@2| .def_249))
(define-fun .def_252 () Bool (= .def_250 |Poker_create::name@3|))
(define-fun .def_259 () Bool (and .def_252 .def_258))
(define-fun .def_244 () Real (__BASE_ADDRESS_OF__ |__ADDRESS_OF_main::__CPAchecker_TMP_5|))
(define-fun .def_245 () Bool (= |__ADDRESS_OF_main::__CPAchecker_TMP_5| .def_244))
(define-fun .def_241 () Bool (= rand |main::__CPAchecker_TMP_4@3|))
(define-fun .def_237 () Real (__BASE_ADDRESS_OF__ |__ADDRESS_OF_main::__CPAchecker_TMP_4|))
(define-fun .def_238 () Bool (= |__ADDRESS_OF_main::__CPAchecker_TMP_4| .def_237))
(define-fun .def_234 () Bool (= rand |main::__CPAchecker_TMP_3@3|))
(define-fun .def_229 () Real (__BASE_ADDRESS_OF__ |__ADDRESS_OF_main::__CPAchecker_TMP_3|))
(define-fun .def_230 () Bool (= |__ADDRESS_OF_main::__CPAchecker_TMP_3| .def_229))
(define-fun .def_227 () Bool (= |main::__CPAchecker_TMP_0@3| |main::fst@3|))
(define-fun .def_231 () Bool (and .def_227 .def_230))
(define-fun .def_224 () Bool (= |Poker_create::__retval__@2| |main::__CPAchecker_TMP_0@3|))
(define-fun .def_220 () Bool (= |Poker_create::pn@3| |Poker_create::__retval__@2|))
(define-fun .def_216 () Real (+ |Poker_create::pn@3| (to_real 4)))
(define-fun .def_217 () Real (*signed_int@2 .def_216))
(define-fun .def_218 () Bool (= |Poker_create::num@2| .def_217))
(define-fun .def_221 () Bool (and .def_218 .def_220))
(define-fun .def_200 () Bool (<= (to_real 0) Num@4))
(define-fun .def_196 () Real (* (to_real (- 1)) Num@4))
(define-fun .def_197 () Real (+ Num@3 .def_196))
(define-fun .def_198 () Bool (= .def_197 (to_real 1)))
(define-fun .def_39 () Real (|*(char)*@1| .def_38))
(define-fun .def_184 () Bool (= .def_39 .def_183))
(define-fun .def_46 () Real (|*(char)*@1| .def_45))
(define-fun .def_182 () Bool (= .def_46 .def_181))
(define-fun .def_189 () Bool (and .def_182 .def_184))
(define-fun .def_32 () Real (|*(char)*@1| .def_31))
(define-fun .def_186 () Bool (= .def_32 .def_185))
(define-fun .def_190 () Bool (and .def_186 .def_189))
(define-fun .def_26 () Real (|*(char)*@1| |__ADDRESS_OF_main::pname|))
(define-fun .def_188 () Bool (= .def_26 .def_187))
(define-fun .def_191 () Bool (and .def_188 .def_190))
(define-fun .def_179 () Real (|*(char)*@2| |Poker_create::pn@3|))
(define-fun .def_178 () Real (strdup |Poker_create::name@2|))
(define-fun .def_180 () Bool (= .def_178 .def_179))
(define-fun .def_192 () Bool (and .def_180 .def_191))
(define-fun .def_158 () Bool (<= (to_real 0) Num@3))
(define-fun .def_154 () Real (* (to_real (- 1)) Num@3))
(define-fun .def_155 () Real (+ Num@2 .def_154))
(define-fun .def_156 () Bool (= .def_155 (to_real 1)))
(define-fun .def_128 () Bool (= |Poker_create::pn@3| (to_real 0)))
(define-fun .def_129 () Bool (not .def_128))
(define-fun .def_125 () Bool (= |__ADDRESS_OF___VERIFIER_successful_alloc_*void#0| |Poker_create::pn@3|))
(define-fun .def_120 () Real (* (to_real (- 1)) |__ADDRESS_OF___VERIFIER_successful_alloc_*void#0|))
(define-fun .def_121 () Real (+ |__ADDRESS_OF_main::play| .def_120))
(define-fun .def_122 () Bool (<= .def_121 (to_real (- 4))))
(define-fun .def_118 () Bool (<= |__ADDRESS_OF_main::play| (to_real (- 4))))
(define-fun .def_119 () Bool (not .def_118))
(define-fun .def_123 () Bool (and .def_119 .def_122))
(define-fun .def_126 () Bool (and .def_123 .def_125))
(define-fun .def_112 () Real (__BASE_ADDRESS_OF__ |__ADDRESS_OF_Poker_create::pn|))
(define-fun .def_113 () Bool (= |__ADDRESS_OF_Poker_create::pn| .def_112))
(define-fun .def_106 () Real (* (to_real (- 1)) |Poker_create::num@2|))
(define-fun .def_103 () Real (Rational__%_ |main::__CPAchecker_TMP_2@3| (to_real 13)))
(define-fun .def_107 () Real (+ .def_103 .def_106))
(define-fun .def_108 () Bool (= .def_107 (to_real (- 1))))
(define-fun .def_96 () Real (Rational__%_ |main::__CPAchecker_TMP_1@3| (to_real 4)))
(define-fun .def_97 () Real (* (to_real 4) .def_96))
(define-fun .def_98 () Real (+ .def_95 .def_97))
(define-fun .def_99 () Real (|*(char)*@1| .def_98))
(define-fun .def_101 () Bool (= .def_99 |Poker_create::name@2|))
(define-fun .def_109 () Bool (and .def_101 .def_108))
(define-fun .def_93 () Bool (= rand |main::__CPAchecker_TMP_2@3|))
(define-fun .def_89 () Real (__BASE_ADDRESS_OF__ |__ADDRESS_OF_main::__CPAchecker_TMP_2|))
(define-fun .def_90 () Bool (= |__ADDRESS_OF_main::__CPAchecker_TMP_2| .def_89))
(define-fun .def_86 () Bool (= rand |main::__CPAchecker_TMP_1@3|))
(define-fun .def_80 () Real (__BASE_ADDRESS_OF__ |__ADDRESS_OF_main::__CPAchecker_TMP_1|))
(define-fun .def_81 () Bool (= |__ADDRESS_OF_main::__CPAchecker_TMP_1| .def_80))
(define-fun .def_77 () Real (__BASE_ADDRESS_OF__ |__ADDRESS_OF_main::__CPAchecker_TMP_0|))
(define-fun .def_78 () Bool (= |__ADDRESS_OF_main::__CPAchecker_TMP_0| .def_77))
(define-fun .def_82 () Bool (and .def_78 .def_81))
(define-fun .def_71 () Bool (<= |main::play@2| (to_real 0)))
(define-fun .def_72 () Bool (not .def_71))
(define-fun .def_64 () Real (* (to_real (- 1)) |__ADDRESS_OF_main::play|))
(define-fun .def_65 () Real (+ |__ADDRESS_OF_main::pname| .def_64))
(define-fun .def_66 () Bool (<= .def_65 (to_real (- 16))))
(define-fun .def_61 () Bool (<= |__ADDRESS_OF_main::pname| (to_real (- 16))))
(define-fun .def_62 () Bool (not .def_61))
(define-fun .def_67 () Bool (and .def_62 .def_66))
(define-fun .def_56 () Real (__BASE_ADDRESS_OF__ |__ADDRESS_OF_main::play|))
(define-fun .def_57 () Bool (= |__ADDRESS_OF_main::play| .def_56))
(define-fun .def_68 () Bool (and .def_57 .def_67))
(define-fun .def_15 () Real (__BASE_ADDRESS_OF__ |__ADDRESS_OF_main::fst|))
(define-fun .def_16 () Bool (= |__ADDRESS_OF_main::fst| .def_15))
(define-fun .def_9 () Real (__BASE_ADDRESS_OF__ __ADDRESS_OF_Num))
(define-fun .def_10 () Bool (= __ADDRESS_OF_Num .def_9))
(define-fun .def_50 () Bool (and .def_10 .def_16))
(define-fun .def_18 () Real (__BASE_ADDRESS_OF__ |__ADDRESS_OF_main::sec|))
(define-fun .def_19 () Bool (= |__ADDRESS_OF_main::sec| .def_18))
(define-fun .def_51 () Bool (and .def_19 .def_50))
(define-fun .def_21 () Real (__BASE_ADDRESS_OF__ |__ADDRESS_OF_main::pname|))
(define-fun .def_22 () Bool (= |__ADDRESS_OF_main::pname| .def_21))
(define-fun .def_52 () Bool (and .def_22 .def_51))
(define-fun .def_23 () Bool (<= |__ADDRESS_OF_main::pname| (to_real 0)))
(define-fun .def_24 () Bool (not .def_23))
(define-fun .def_53 () Bool (and .def_24 .def_52))
(define-fun .def_43 () Real (__string__ (to_real 3)))
(define-fun .def_47 () Bool (= .def_43 .def_46))
(define-fun .def_36 () Real (__string__ (to_real 2)))
(define-fun .def_40 () Bool (= .def_36 .def_39))
(define-fun .def_29 () Real (__string__ (to_real 1)))
(define-fun .def_33 () Bool (= .def_29 .def_32))
(define-fun .def_25 () Real (__string__ (to_real 0)))
(define-fun .def_27 () Bool (= .def_25 .def_26))
(define-fun .def_34 () Bool (and .def_27 .def_33))
(define-fun .def_41 () Bool (and .def_34 .def_40))
(define-fun .def_48 () Bool (and .def_41 .def_47))
(define-fun .def_13 () Bool (= Num@2 (to_real 4)))
(define-fun .def_49 () Bool (and .def_13 .def_48))
(define-fun .def_54 () Bool (and .def_49 .def_53))
(define-fun .def_69 () Bool (and .def_54 .def_68))
(define-fun .def_74 () Bool (and .def_69 .def_72))
(define-fun .def_83 () Bool (and .def_74 .def_82))
(define-fun .def_87 () Bool (and .def_83 .def_86))
(define-fun .def_91 () Bool (and .def_87 .def_90))
(define-fun .def_94 () Bool (and .def_91 .def_93))
(define-fun .def_110 () Bool (and .def_94 .def_109))
(define-fun .def_114 () Bool (and .def_110 .def_113))
(define-fun .def_127 () Bool (and .def_114 .def_126))
(define-fun .def_131 () Bool (and .def_127 .def_129))
(define-fun .def_157 () Bool (and .def_131 .def_156))
(define-fun .def_160 () Bool (and .def_157 .def_158))
(define-fun .def_193 () Bool (and .def_160 .def_192))
(define-fun .def_199 () Bool (and .def_193 .def_198))
(define-fun .def_202 () Bool (and .def_199 .def_200))
(define-fun .def_222 () Bool (and .def_202 .def_221))
(define-fun .def_225 () Bool (and .def_222 .def_224))
(define-fun .def_232 () Bool (and .def_225 .def_231))
(define-fun .def_235 () Bool (and .def_232 .def_234))
(define-fun .def_239 () Bool (and .def_235 .def_238))
(define-fun .def_242 () Bool (and .def_239 .def_241))
(define-fun .def_246 () Bool (and .def_242 .def_245))
(define-fun .def_260 () Bool (and .def_246 .def_259))
(define-fun .def_261 () Bool (and .def_113 .def_260))
(define-fun .def_274 () Bool (and .def_261 .def_273))
(define-fun .def_278 () Bool (and .def_274 .def_276))
(define-fun .def_317 () Bool (and .def_278 .def_316))
(define-fun .def_320 () Bool (and .def_317 .def_318))
(define-fun .def_359 () Bool (and .def_320 .def_358))
(define-fun .def_365 () Bool (and .def_359 .def_364))
(define-fun .def_368 () Bool (and .def_365 .def_366))
(define-fun .def_410 () Bool (and .def_368 .def_409))
(define-fun .def_413 () Bool (and .def_410 .def_412))
(define-fun .def_418 () Bool (and .def_413 .def_417))
(define-fun .def_422 () Bool (and .def_418 .def_420))
(define-fun .def_951 () Bool (and .def_422 .def_429))
(define-fun .def_296 () Bool (= |main::fst@3| (to_real 0)))
(define-fun .def_297 () Bool (not .def_296))
(define-fun .def_952 () Bool (and .def_297 .def_951))
(define-fun .def_436 () Bool (= |main::fst@3| |Poker_print::pn@2|))
(define-fun .def_953 () Bool (and .def_436 .def_952))
(define-fun .def_439 () Real (+ |Poker_print::pn@2| (to_real 4)))
(define-fun .def_440 () Real (*signed_int@3 .def_439))
(define-fun .def_441 () Bool (= .def_440 (to_real 2)))
(define-fun .def_954 () Bool (and .def_441 .def_953))
(define-fun .def_523 () Bool (= |main::sec@2| |Poker_print::pn@3|))
(define-fun .def_955 () Bool (and .def_523 .def_954))
(define-fun .def_526 () Real (+ |Poker_print::pn@3| (to_real 4)))
(define-fun .def_527 () Real (*signed_int@3 .def_526))
(define-fun .def_528 () Bool (= .def_527 (to_real 2)))
(define-fun .def_956 () Bool (and .def_528 .def_955))
(define-fun .def_607 () Bool (= |main::fst@3| |Poker_destroy::pn@2|))
(define-fun .def_957 () Bool (and .def_607 .def_956))
(define-fun .def_609 () Bool (= |Poker_destroy::pn@2| (to_real 0)))
(define-fun .def_610 () Bool (not .def_609))
(define-fun .def_958 () Bool (and .def_610 .def_957))
(define-fun .def_645 () Real (* (to_real (- 1)) Num@7))
(define-fun .def_646 () Real (+ Num@6 .def_645))
(define-fun .def_647 () Bool (= .def_646 (to_real (- 1))))
(define-fun .def_959 () Bool (and .def_647 .def_958))
(define-fun .def_651 () Real (* (to_real (- 1)) Num@8))
(define-fun .def_652 () Real (+ Num@7 .def_651))
(define-fun .def_653 () Bool (= .def_652 (to_real (- 1))))
(define-fun .def_960 () Bool (and .def_653 .def_959))
(define-fun .def_656 () Bool (= |main::sec@2| |Poker_destroy::pn@3|))
(define-fun .def_961 () Bool (and .def_656 .def_960))
(define-fun .def_658 () Bool (= |Poker_destroy::pn@3| (to_real 0)))
(define-fun .def_962 () Bool (and .def_658 .def_961))
(assert .def_962)
